(set-logic HORN)

(declare-fun state ((Array Int Int) (Array Int Int) (Array Int Int) Int Int Int Int Bool Bool Bool Bool) Bool)


(assert (forall ((|!{a.1}| (Array Int Int)) (|!{b.2}| (Array Int Int)) (|!{c.3}| (Array Int Int)) (|!{SIZE}| Int) (|!{i}| Int) (|!{rv}| Int) (|!{x}| Int) (|!pc[0]| Bool) (|!pc[1]| Bool) (|!pc[2]| Bool) (|!pc[3]| Bool))
  (=>
   (let ((.def_54 (not |!pc[3]|)))
(let ((.def_52 (not |!pc[2]|)))
(let ((.def_50 (not |!pc[1]|)))
(let ((.def_49 (not |!pc[0]|)))
(let ((.def_51 (and .def_49 .def_50)))
(let ((.def_53 (and .def_51 .def_52)))
(let ((.def_55 (and .def_53 .def_54)))
.def_55)))))))
   (state |!{a.1}| |!{b.2}| |!{c.3}| |!{SIZE}| |!{i}| |!{rv}| |!{x}| |!pc[0]| |!pc[1]| |!pc[2]| |!pc[3]|))))

(assert (forall ((|!{a.1}| (Array Int Int)) (|!{b.2}| (Array Int Int)) (|!{c.3}| (Array Int Int)) (|!{SIZE}| Int) (|!{i}| Int) (|!{rv}| Int) (|!{x}| Int) (|!pc[0]| Bool) (|!pc[1]| Bool) (|!pc[2]| Bool) (|!pc[3]| Bool)
                 (|!{a.1}.next| (Array Int Int)) (|!{b.2}.next| (Array Int Int)) (|!{c.3}.next| (Array Int Int)) (|!{SIZE}.next| Int) (|!{i}.next| Int) (|!{rv}.next| Int) (|!{x}.next| Int) (|!pc[0].next| Bool) (|!pc[1].next| Bool) (|!pc[2].next| Bool) (|!pc[3].next| Bool)
                 (|%{x}#1| Int) (|%{a.1}#1| (Array Int Int)) (|%{b.2}#1| (Array Int Int)) (|%{c.3}#1| (Array Int Int)) (nd<0> Int) (|%{rv}#2| Int) (nd_char<0> Int))
  (=>
   (and (state |!{a.1}| |!{b.2}| |!{c.3}| |!{SIZE}| |!{i}| |!{rv}| |!{x}| |!pc[0]| |!pc[1]| |!pc[2]| |!pc[3]|)
(let ((.def_50 (not |!pc[1]|)))
(let ((.def_180 (and |!pc[0]| .def_50)))
(let ((.def_52 (not |!pc[2]|)))
(let ((.def_268 (and .def_52 .def_180)))
(let ((.def_54 (not |!pc[3]|)))
(let ((.def_269 (and .def_54 .def_268)))
(let ((.def_137 (and |!pc[0].next| |!pc[1].next|)))
(let ((.def_241 (and |!pc[2].next| .def_137)))
(let ((.def_87 (not |!pc[3].next|)))
(let ((.def_242 (and .def_87 .def_241)))
(let ((.def_272 (and .def_242 .def_269)))
(let ((.def_102 (= |!{b.2}| |!{b.2}.next|)))
(let ((.def_100 (= |!{a.1}| |!{a.1}.next|)))
(let ((.def_115 (and .def_100 .def_102)))
(let ((.def_104 (= |!{c.3}| |!{c.3}.next|)))
(let ((.def_116 (and .def_104 .def_115)))
(let ((.def_106 (= |!{SIZE}| |!{SIZE}.next|)))
(let ((.def_117 (and .def_106 .def_116)))
(let ((.def_76 (= |!{i}.next| 0)))
(let ((.def_264 (and .def_76 .def_117)))
(let ((.def_110 (= |!{rv}| |!{rv}.next|)))
(let ((.def_265 (and .def_110 .def_264)))
(let ((.def_112 (= |!{x}| |!{x}.next|)))
(let ((.def_266 (and .def_112 .def_265)))
(let ((.def_201 (<= |!{SIZE}| |!{i}|)))
(let ((.def_267 (and .def_201 .def_266)))
(let ((.def_273 (and .def_267 .def_272)))
(let ((.def_85 (not |!pc[2].next|)))
(let ((.def_83 (not |!pc[1].next|)))
(let ((.def_84 (and |!pc[0].next| .def_83)))
(let ((.def_86 (and .def_84 .def_85)))
(let ((.def_88 (and .def_86 .def_87)))
(let ((.def_270 (and .def_88 .def_269)))
(let ((.def_254 (store |!{b.2}| |!{i}| nd_char<0>)))
(let ((.def_256 (= |!{b.2}.next| .def_254)))
(let ((.def_253 (store |!{a.1}| |!{i}| nd_char<0>)))
(let ((.def_255 (= |!{a.1}.next| .def_253)))
(let ((.def_257 (and .def_255 .def_256)))
(let ((.def_258 (and .def_104 .def_257)))
(let ((.def_259 (and .def_106 .def_258)))
(let ((.def_226 (* (- 1) |!{i}.next|)))
(let ((.def_227 (+ |!{i}| .def_226)))
(let ((.def_228 (= .def_227 (- 1))))
(let ((.def_260 (and .def_228 .def_259)))
(let ((.def_261 (and .def_110 .def_260)))
(let ((.def_262 (and .def_112 .def_261)))
(let ((.def_202 (not .def_201)))
(let ((.def_263 (and .def_202 .def_262)))
(let ((.def_271 (and .def_263 .def_270)))
(let ((.def_274 (or .def_271 .def_273)))
(let ((.def_156 (and |!pc[0]| |!pc[1]|)))
(let ((.def_239 (and |!pc[2]| .def_156)))
(let ((.def_240 (and .def_54 .def_239)))
(let ((.def_142 (not |!pc[0].next|)))
(let ((.def_143 (and |!pc[1].next| .def_142)))
(let ((.def_144 (and .def_85 .def_143)))
(let ((.def_145 (and .def_87 .def_144)))
(let ((.def_248 (and .def_145 .def_240)))
(let ((.def_209 (= |!{rv}| 0)))
(let ((.def_177 (= |!{x}.next| 0)))
(let ((.def_108 (= |!{i}| |!{i}.next|)))
(let ((.def_118 (and .def_108 .def_117)))
(let ((.def_119 (and .def_110 .def_118)))
(let ((.def_178 (and .def_119 .def_177)))
(let ((.def_237 (and .def_178 .def_209)))
(let ((.def_238 (and .def_201 .def_237)))
(let ((.def_249 (and .def_238 .def_248)))
(let ((.def_187 (and |!pc[2].next| .def_84)))
(let ((.def_188 (and .def_87 .def_187)))
(let ((.def_245 (and .def_188 .def_240)))
(let ((.def_220 (not .def_209)))
(let ((.def_235 (and .def_178 .def_220)))
(let ((.def_236 (and .def_201 .def_235)))
(let ((.def_246 (and .def_236 .def_245)))
(let ((.def_243 (and .def_240 .def_242)))
(let ((.def_230 (= |!{rv}.next| |%{rv}#2|)))
(let ((.def_203 (select |!{a.1}| |!{i}|)))
(let ((.def_218 (store |!{c.3}| |!{i}| .def_203)))
(let ((.def_223 (= |!{c.3}.next| .def_218)))
(let ((.def_224 (and .def_115 .def_223)))
(let ((.def_225 (and .def_106 .def_224)))
(let ((.def_229 (and .def_225 .def_228)))
(let ((.def_231 (and .def_229 .def_230)))
(let ((.def_232 (and .def_112 .def_231)))
(let ((.def_212 (= |%{rv}#2| 0)))
(let ((.def_204 (select |!{b.2}| |!{i}|)))
(let ((.def_205 (= .def_203 .def_204)))
(let ((.def_206 (not .def_205)))
(let ((.def_214 (and .def_206 .def_212)))
(let ((.def_211 (= |!{rv}| |%{rv}#2|)))
(let ((.def_213 (and .def_205 .def_211)))
(let ((.def_215 (or .def_213 .def_214)))
(let ((.def_233 (and .def_215 .def_232)))
(let ((.def_234 (and .def_202 .def_233)))
(let ((.def_244 (and .def_234 .def_243)))
(let ((.def_247 (or .def_244 .def_246)))
(let ((.def_250 (or .def_247 .def_249)))
(let ((.def_49 (not |!pc[0]|)))
(let ((.def_134 (and |!pc[1]| .def_49)))
(let ((.def_196 (and |!pc[2]| .def_134)))
(let ((.def_197 (and .def_54 .def_196)))
(let ((.def_198 (and .def_188 .def_197)))
(let ((.def_121 (* (- 1) |!{x}.next|)))
(let ((.def_122 (+ |!{x}| .def_121)))
(let ((.def_123 (= .def_122 (- 1))))
(let ((.def_124 (and .def_119 .def_123)))
(let ((.def_199 (and .def_124 .def_198)))
(let ((.def_181 (and |!pc[2]| .def_180)))
(let ((.def_182 (and .def_54 .def_181)))
(let ((.def_192 (and .def_145 .def_182)))
(let ((.def_91 (<= |!{SIZE}| |!{x}|)))
(let ((.def_179 (and .def_91 .def_178)))
(let ((.def_193 (and .def_179 .def_192)))
(let ((.def_189 (and .def_182 .def_188)))
(let ((.def_162 (select |!{b.2}| |!{x}|)))
(let ((.def_93 (select |!{a.1}| |!{x}|)))
(let ((.def_163 (= .def_93 .def_162)))
(let ((.def_175 (and .def_124 .def_163)))
(let ((.def_92 (not .def_91)))
(let ((.def_176 (and .def_92 .def_175)))
(let ((.def_190 (and .def_176 .def_189)))
(let ((.def_183 (and |!pc[2].next| .def_143)))
(let ((.def_184 (and .def_87 .def_183)))
(let ((.def_185 (and .def_182 .def_184)))
(let ((.def_164 (not .def_163)))
(let ((.def_167 (and .def_100 .def_164)))
(let ((.def_168 (and .def_102 .def_167)))
(let ((.def_169 (and .def_104 .def_168)))
(let ((.def_170 (and .def_106 .def_169)))
(let ((.def_171 (and .def_108 .def_170)))
(let ((.def_172 (and .def_110 .def_171)))
(let ((.def_173 (and .def_112 .def_172)))
(let ((.def_174 (and .def_92 .def_173)))
(let ((.def_186 (and .def_174 .def_185)))
(let ((.def_191 (or .def_186 .def_190)))
(let ((.def_194 (or .def_191 .def_193)))
(let ((.def_157 (and .def_52 .def_156)))
(let ((.def_158 (and .def_54 .def_157)))
(let ((.def_159 (and .def_145 .def_158)))
(let ((.def_160 (and .def_124 .def_159)))
(let ((.def_149 (and .def_83 .def_142)))
(let ((.def_150 (and |!pc[2].next| .def_149)))
(let ((.def_151 (and .def_87 .def_150)))
(let ((.def_135 (and .def_52 .def_134)))
(let ((.def_136 (and .def_54 .def_135)))
(let ((.def_152 (and .def_136 .def_151)))
(let ((.def_127 (and .def_91 .def_100)))
(let ((.def_128 (and .def_102 .def_127)))
(let ((.def_129 (and .def_104 .def_128)))
(let ((.def_130 (and .def_106 .def_129)))
(let ((.def_131 (and .def_108 .def_130)))
(let ((.def_132 (and .def_110 .def_131)))
(let ((.def_133 (and .def_112 .def_132)))
(let ((.def_153 (and .def_133 .def_152)))
(let ((.def_146 (and .def_136 .def_145)))
(let ((.def_94 (select |!{c.3}| |!{x}|)))
(let ((.def_95 (= .def_93 .def_94)))
(let ((.def_125 (and .def_95 .def_124)))
(let ((.def_126 (and .def_92 .def_125)))
(let ((.def_147 (and .def_126 .def_146)))
(let ((.def_138 (and .def_85 .def_137)))
(let ((.def_139 (and .def_87 .def_138)))
(let ((.def_140 (and .def_136 .def_139)))
(let ((.def_96 (not .def_95)))
(let ((.def_101 (and .def_96 .def_100)))
(let ((.def_103 (and .def_101 .def_102)))
(let ((.def_105 (and .def_103 .def_104)))
(let ((.def_107 (and .def_105 .def_106)))
(let ((.def_109 (and .def_107 .def_108)))
(let ((.def_111 (and .def_109 .def_110)))
(let ((.def_113 (and .def_111 .def_112)))
(let ((.def_114 (and .def_92 .def_113)))
(let ((.def_141 (and .def_114 .def_140)))
(let ((.def_148 (or .def_141 .def_147)))
(let ((.def_154 (or .def_148 .def_153)))
(let ((.def_51 (and .def_49 .def_50)))
(let ((.def_53 (and .def_51 .def_52)))
(let ((.def_55 (and .def_53 .def_54)))
(let ((.def_89 (and .def_55 .def_88)))
(let ((.def_80 (= |!{x}.next| |%{x}#1|)))
(let ((.def_78 (= |!{rv}.next| 1)))
(let ((.def_74 (= |!{SIZE}.next| nd<0>)))
(let ((.def_72 (= |!{c.3}.next| |%{c.3}#1|)))
(let ((.def_70 (= |!{b.2}.next| |%{b.2}#1|)))
(let ((.def_69 (= |!{a.1}.next| |%{a.1}#1|)))
(let ((.def_71 (and .def_69 .def_70)))
(let ((.def_73 (and .def_71 .def_72)))
(let ((.def_75 (and .def_73 .def_74)))
(let ((.def_77 (and .def_75 .def_76)))
(let ((.def_79 (and .def_77 .def_78)))
(let ((.def_81 (and .def_79 .def_80)))
(let ((.def_66 (<= nd<0> 0)))
(let ((.def_67 (not .def_66)))
(let ((.def_82 (and .def_67 .def_81)))
(let ((.def_90 (and .def_82 .def_89)))
(let ((.def_155 (or .def_90 .def_154)))
(let ((.def_161 (or .def_155 .def_160)))
(let ((.def_195 (or .def_161 .def_194)))
(let ((.def_200 (or .def_195 .def_199)))
(let ((.def_251 (or .def_200 .def_250)))
(let ((.def_275 (or .def_251 .def_274)))
.def_275)))))))))))))))))))))))))))))))))))))))))))))))))))))))))))))))))))))))))))))))))))))))))))))))))))))))))))))))))))))))))))))))))))))))))))))))))))))))))))))))))))))))))))))))))))))))))))))))))))))))))
   ) (state |!{a.1}.next| |!{b.2}.next| |!{c.3}.next| |!{SIZE}.next| |!{i}.next| |!{rv}.next| |!{x}.next| |!pc[0].next| |!pc[1].next| |!pc[2].next| |!pc[3].next|))))

(assert (forall ((|!{a.1}| (Array Int Int)) (|!{b.2}| (Array Int Int)) (|!{c.3}| (Array Int Int)) (|!{SIZE}| Int) (|!{i}| Int) (|!{rv}| Int) (|!{x}| Int) (|!pc[0]| Bool) (|!pc[1]| Bool) (|!pc[2]| Bool) (|!pc[3]| Bool))
  (=> (state |!{a.1}| |!{b.2}| |!{c.3}| |!{SIZE}| |!{i}| |!{rv}| |!{x}| |!pc[0]| |!pc[1]| |!pc[2]| |!pc[3]|)
(let ((.def_49 (not |!pc[0]|)))
(let ((.def_134 (and |!pc[1]| .def_49)))
(let ((.def_196 (and |!pc[2]| .def_134)))
(let ((.def_54 (not |!pc[3]|)))
(let ((.def_197 (and .def_54 .def_196)))
(let ((.def_156 (and |!pc[0]| |!pc[1]|)))
(let ((.def_52 (not |!pc[2]|)))
(let ((.def_157 (and .def_52 .def_156)))
(let ((.def_158 (and .def_54 .def_157)))
(let ((.def_276 (or .def_158 .def_197)))
(let ((.def_277 (not .def_276)))
.def_277)))))))))))
)))

(check-sat)
